<instance format="XCSP3" type="COP">
  <variables>
    <var id="b" note="number of banana cakes"> 0..99 </var>
    <var id="c" note="number of chocolate cakes"> 0..99 </var>
  </variables>
  <constraints>
    <group>
      <intension> le(add(mul(%0,%1),mul(%2,%3)),%4) </intension>
      <args> 250 b 200 c 4000 </args>
      <args> 75 b 150 c 2000 </args>
      <args> 100 b 150 c 500 </args>
    </group>
    <group>
      <intension> le(mul(%0,%1),%2) </intension>
      <args> 2 b 6 </args>
      <args> 75 c 500 </args>
    </group>
  </constraints>
  <objectives>
    <maximize type="sum">
      <list> b c </list>
      <coeffs> 400 450 </coeffs>
    </maximize>
  </objectives>
</instance>
